
Note: the module "julia" cannot be unloaded because it was not loaded.

2023/11/29
gurobi is now 11.0.0
previous version was 10.0.2
solving instance uflp nlass gunluk ../../../../../instances/uflp/gunluk/gunluk-20-40-5.txt exp
The latest version of Julia in the `1.10` channel is 1.10.6+0.x64.linux.gnu. You currently have `1.10.5+0.x64.linux.gnu` installed. Run:

  juliaup update

in your terminal shell to install Julia 1.10.6+0.x64.linux.gnu and update the `1.10` channel to that version.
presolving:
(round 1, fast)       0 del vars, 0 del conss, 0 add conss, 800 chg bounds, 0 chg sides, 0 chg coeffs, 0 upgd conss, 0 impls, 800 clqs
(round 2, exhaustive) 0 del vars, 0 del conss, 0 add conss, 800 chg bounds, 0 chg sides, 0 chg coeffs, 1600 upgd conss, 0 impls, 800 clqs
   (0.4s) probing cycle finished: starting next cycle
   (0.4s) symmetry computation started: requiring (bin +, int +, cont +), (fixed: bin -, int -, cont -)
   (0.4s) no symmetry present (symcode time: 0.00)
presolving (3 rounds: 3 fast, 2 medium, 2 exhaustive):
 0 deleted vars, 0 deleted constraints, 0 added constraints, 800 tightened bounds, 0 added holes, 0 changed sides, 0 changed coefficients
 1600 implications, 800 cliques
presolved problem has 2420 variables (820 bin, 0 int, 0 impl, 1600 cont) and 2440 constraints
    800 constraints of type <varbound>
    800 constraints of type <setppc>
     40 constraints of type <linear>
    800 constraints of type <nonlinear>
Presolving Time: 0.38

 time | node  | left  |LP iter|LP it/n|mem/heur|mdpt |vars |cons |rows |cuts |sepa|confs|strbr|  dualbound   | primalbound  |  gap   | compl. 
p 0.5s|     1 |     0 |   798 |     - |  clique|   0 |4820 |2440 |7240 |   0 |  0 |   0 |   0 |-3.051758e-03 | 1.702317e+03 |    Inf | unknown
  0.8s|     1 |     0 |  6515 |     - |    63M |   0 |4820 |2440 |7240 |   0 |  0 | 800 |   0 | 6.534300e+02 | 1.702317e+03 | 160.52%| unknown
  1.0s|     1 |     0 |  6947 |     - |    66M |   0 |4820 |2440 |7417 | 177 |  1 | 800 |   0 | 7.455279e+02 | 1.702317e+03 | 128.34%| unknown
  1.0s|     1 |     0 |  7121 |     - |    67M |   0 |4820 |2440 |7505 | 265 |  2 | 800 |   0 | 7.709763e+02 | 1.702317e+03 | 120.80%| unknown
  1.1s|     1 |     0 |  7284 |     - |    69M |   0 |4820 |2440 |7550 | 310 |  3 | 800 |   0 | 7.770819e+02 | 1.702317e+03 | 119.07%| unknown
t 1.2s|     1 |     0 |  7284 |     - |  trysol|   0 |4820 |2440 |7550 | 310 |  3 | 800 |   0 | 7.770819e+02 | 1.381196e+03 |  77.74%| unknown
  1.2s|     1 |     0 |  7334 |     - |    70M |   0 |4820 |2440 |7571 | 331 |  4 | 800 |   0 | 7.794069e+02 | 1.381196e+03 |  77.21%| unknown
  1.2s|     1 |     0 |  7347 |     - |    70M |   0 |4820 |2440 |7571 | 331 |  4 | 800 |   0 | 7.794070e+02 | 1.381196e+03 |  77.21%| unknown
  1.2s|     1 |     0 |  7374 |     - |    71M |   0 |4820 |2440 |7574 | 334 |  5 | 800 |   0 | 7.796165e+02 | 1.381196e+03 |  77.16%| unknown
t 1.3s|     1 |     0 |  7374 |     - |  trysol|   0 |4820 |2440 |7574 | 334 |  5 | 800 |   0 | 7.796165e+02 | 1.365473e+03 |  75.15%| unknown
  1.3s|     1 |     0 |  7385 |     - |    73M |   0 |4820 |2440 |7578 | 338 |  6 | 800 |   0 | 7.796212e+02 | 1.365473e+03 |  75.15%| unknown
t 1.3s|     1 |     0 |  7385 |     - |  trysol|   0 |4820 |2440 |7578 | 338 |  6 | 800 |   0 | 7.796212e+02 | 1.245564e+03 |  59.77%| unknown
  1.3s|     1 |     0 |  7393 |     - |    73M |   0 |4820 |2440 |7578 | 338 |  7 | 800 |   0 | 7.796212e+02 | 1.245564e+03 |  59.77%| unknown
t 1.4s|     1 |     0 |  7753 |     - |  trysol|   0 |4820 |2440 |7578 | 338 |  7 | 800 |   0 | 7.796212e+02 | 9.630111e+02 |  23.52%| unknown
  1.4s|     1 |     0 |  7759 |     - |    74M |   0 |4820 |2440 |7579 | 339 |  8 | 800 |   0 | 7.796213e+02 | 9.630111e+02 |  23.52%| unknown
 time | node  | left  |LP iter|LP it/n|mem/heur|mdpt |vars |cons |rows |cuts |sepa|confs|strbr|  dualbound   | primalbound  |  gap   | compl. 
  1.4s|     1 |     0 |  7761 |     - |    74M |   0 |4820 |2440 |7579 | 339 |  8 | 800 |   0 | 7.796213e+02 | 9.630111e+02 |  23.52%| unknown
L 8.4s|     1 |     0 | 80930 |     - |    rens|   0 |4820 |2440 |7579 | 339 |  9 |1954 |   0 | 7.796213e+02 | 7.796222e+02 |   0.00%| unknown
  8.6s|     1 |     0 | 80931 |     - |    78M |   0 |4820 |2440 |7579 | 339 |  9 |1954 |   0 | 7.796213e+02 | 7.796222e+02 |   0.00%| unknown
  8.6s|     1 |     0 | 80940 |     - |    78M |   0 |4820 |2440 |7551 | 339 |  9 |1954 |   0 | 7.796214e+02 | 7.796222e+02 |   0.00%| unknown

SCIP Status        : solving was interrupted [gap limit reached]
Solving Time (sec) : 8.62
Solving Nodes      : 1
Primal Bound       : +7.79622159892939e+02 (6 solutions)
Dual Bound         : +7.79621411088074e+02
Gap                : 0.00 %
Generating Gunluk and Lee data file ../../../../../instances/uflp/gunluk/gunluk-20-40-5.txt
primal_bound = 779.6221598929393, dual_bound = 779.6214110880744, gap = 9.60471499407677e-5, time = 10.83
